(set-info :smt-lib-version 2.6)
(set-logic UF)
(set-info :source |Benchmarks from the paper: "Extending Sledgehammer with SMT Solvers" by Jasmin Blanchette, Sascha Bohme, and Lawrence C. Paulson, CADE 2011.  Translated to SMT2 by Andrew Reynolds and Morgan Deters.|)
(set-info :category "industrial")
(set-info :status sat)
(declare-sort S1 0)
(declare-sort S2 0)
(declare-sort S3 0)
(declare-sort S4 0)
(declare-sort S5 0)
(declare-sort S6 0)
(declare-sort S7 0)
(declare-sort S8 0)
(declare-sort S9 0)
(declare-sort S10 0)
(declare-sort S11 0)
(declare-sort S12 0)
(declare-sort S13 0)
(declare-sort S14 0)
(declare-sort S15 0)
(declare-sort S16 0)
(declare-sort S17 0)
(declare-sort S18 0)
(declare-sort S19 0)
(declare-sort S20 0)
(declare-sort S21 0)
(declare-sort S22 0)
(declare-sort S23 0)
(declare-sort S24 0)
(declare-sort S25 0)
(declare-sort S26 0)
(declare-sort S27 0)
(declare-sort S28 0)
(declare-sort S29 0)
(declare-sort S30 0)
(declare-sort S31 0)
(declare-sort S32 0)
(declare-sort S33 0)
(declare-sort S34 0)
(declare-sort S35 0)
(declare-sort S36 0)
(declare-sort S37 0)
(declare-sort S38 0)
(declare-sort S39 0)
(declare-sort S40 0)
(declare-sort S41 0)
(declare-sort S42 0)
(declare-sort S43 0)
(declare-sort S44 0)
(declare-sort S45 0)
(declare-sort S46 0)
(declare-sort S47 0)
(declare-sort S48 0)
(declare-sort S49 0)
(declare-sort S50 0)
(declare-sort S51 0)
(declare-sort S52 0)
(declare-sort S53 0)
(declare-sort S54 0)
(declare-sort S55 0)
(declare-sort S56 0)
(declare-sort S57 0)
(declare-sort S58 0)
(declare-sort S59 0)
(declare-sort S60 0)
(declare-sort S61 0)
(declare-sort S62 0)
(declare-sort S63 0)
(declare-sort S64 0)
(declare-sort S65 0)
(declare-sort S66 0)
(declare-sort S67 0)
(declare-sort S68 0)
(declare-sort S69 0)
(declare-sort S70 0)
(declare-sort S71 0)
(declare-sort S72 0)
(declare-sort S73 0)
(declare-sort S74 0)
(declare-sort S75 0)
(declare-sort S76 0)
(declare-sort S77 0)
(declare-sort S78 0)
(declare-sort S79 0)
(declare-sort S80 0)
(declare-sort S81 0)
(declare-sort S82 0)
(declare-sort S83 0)
(declare-sort S84 0)
(declare-sort S85 0)
(declare-sort S86 0)
(declare-sort S87 0)
(declare-sort S88 0)
(declare-sort S89 0)
(declare-sort S90 0)
(declare-sort S91 0)
(declare-sort S92 0)
(declare-sort S93 0)
(declare-sort S94 0)
(declare-sort S95 0)
(declare-sort S96 0)
(declare-sort S97 0)
(declare-sort S98 0)
(declare-sort S99 0)
(declare-sort S100 0)
(declare-sort S101 0)
(declare-sort S102 0)
(declare-fun f1 () S1)
(declare-fun f2 () S1)
(declare-fun f3 (S3 S2) S1)
(declare-fun f4 () S3)
(declare-fun f5 (S4 S3) S1)
(declare-fun f6 (S5 S2) S4)
(declare-fun f7 () S5)
(declare-fun f8 (S6 S7) S3)
(declare-fun f9 () S6)
(declare-fun f10 () S7)
(declare-fun f11 (S8 S9) S3)
(declare-fun f12 (S10 S9) S8)
(declare-fun f13 (S11 S12) S10)
(declare-fun f14 () S11)
(declare-fun f15 () S12)
(declare-fun f16 () S9)
(declare-fun f17 () S3)
(declare-fun f18 (S15 S13) S1)
(declare-fun f19 (S16 S13) S15)
(declare-fun f20 () S16)
(declare-fun f21 () S13)
(declare-fun f22 (S17 S14) S2)
(declare-fun f23 (S18 S13) S17)
(declare-fun f24 () S18)
(declare-fun f25 (S19 S14) S14)
(declare-fun f26 (S20 S13) S19)
(declare-fun f27 () S20)
(declare-fun f28 (S12 S13) S21)
(declare-fun f29 (S22 S12) S21)
(declare-fun f30 (S23 S1) S22)
(declare-fun f31 () S23)
(declare-fun f32 () S12)
(declare-fun f33 () S15)
(declare-fun f34 (S24 S13) S13)
(declare-fun f35 (S25 S13) S24)
(declare-fun f36 () S25)
(declare-fun f37 (S26 S14) S13)
(declare-fun f38 (S27 S14) S26)
(declare-fun f39 () S27)
(declare-fun f40 () S19)
(declare-fun f41 () S14)
(declare-fun f42 (S28 S3) S3)
(declare-fun f43 () S28)
(declare-fun f44 (S29 S13) S26)
(declare-fun f45 () S29)
(declare-fun f46 (S30 S2) S3)
(declare-fun f47 () S30)
(declare-fun f48 (S32 S31) S1)
(declare-fun f49 (S33 S31) S32)
(declare-fun f50 () S33)
(declare-fun f51 (S35 S34) S1)
(declare-fun f52 (S36 S34) S35)
(declare-fun f53 () S36)
(declare-fun f54 () S16)
(declare-fun f55 () S30)
(declare-fun f56 () S33)
(declare-fun f57 () S36)
(declare-fun f58 () S16)
(declare-fun f59 (S21 S14) S1)
(declare-fun f60 (S37 S2) S28)
(declare-fun f61 () S37)
(declare-fun f62 (S38 S32) S32)
(declare-fun f63 (S39 S31) S38)
(declare-fun f64 () S39)
(declare-fun f65 (S40 S32) S1)
(declare-fun f66 (S41 S31) S40)
(declare-fun f67 () S41)
(declare-fun f68 (S42 S35) S35)
(declare-fun f69 (S43 S34) S42)
(declare-fun f70 () S43)
(declare-fun f71 (S44 S35) S1)
(declare-fun f72 (S45 S34) S44)
(declare-fun f73 () S45)
(declare-fun f74 (S46 S15) S15)
(declare-fun f75 (S47 S13) S46)
(declare-fun f76 () S47)
(declare-fun f77 (S48 S15) S1)
(declare-fun f78 (S49 S13) S48)
(declare-fun f79 () S49)
(declare-fun f80 () S37)
(declare-fun f81 () S39)
(declare-fun f82 () S43)
(declare-fun f83 () S47)
(declare-fun f84 () S37)
(declare-fun f85 () S39)
(declare-fun f86 () S43)
(declare-fun f87 () S47)
(declare-fun f88 () S37)
(declare-fun f89 () S39)
(declare-fun f90 () S43)
(declare-fun f91 () S47)
(declare-fun f92 (S50 S2) S12)
(declare-fun f93 () S50)
(declare-fun f94 (S51 S2) S13)
(declare-fun f95 () S51)
(declare-fun f96 () S47)
(declare-fun f97 () S13)
(declare-fun f98 () S24)
(declare-fun f99 () S13)
(declare-fun f100 () S15)
(declare-fun f101 (S9 S13) S12)
(declare-fun f102 (S52 S2) S9)
(declare-fun f103 () S52)
(declare-fun f104 (S53 S13) S29)
(declare-fun f105 () S53)
(declare-fun f106 () S13)
(declare-fun f107 () S3)
(declare-fun f108 () S32)
(declare-fun f109 () S35)
(declare-fun f110 () S15)
(declare-fun f111 (S54 S3) S15)
(declare-fun f112 (S55 S51) S54)
(declare-fun f113 () S55)
(declare-fun f114 (S56 S53) S51)
(declare-fun f115 (S57 S53) S56)
(declare-fun f116 (S58 S29) S57)
(declare-fun f117 () S58)
(declare-fun f118 () S46)
(declare-fun f119 () S51)
(declare-fun f120 (S7) S59)
(declare-fun f121 () S59)
(declare-fun f122 (S60 S34) S13)
(declare-fun f123 (S61 S35) S15)
(declare-fun f124 (S62 S60) S61)
(declare-fun f125 () S62)
(declare-fun f126 (S63 S31) S13)
(declare-fun f127 (S64 S32) S15)
(declare-fun f128 (S65 S63) S64)
(declare-fun f129 () S65)
(declare-fun f130 (S66 S34) S2)
(declare-fun f131 (S67 S35) S3)
(declare-fun f132 (S68 S66) S67)
(declare-fun f133 () S68)
(declare-fun f134 (S69 S31) S2)
(declare-fun f135 (S70 S32) S3)
(declare-fun f136 (S71 S69) S70)
(declare-fun f137 () S71)
(declare-fun f138 (S72 S13) S34)
(declare-fun f139 (S73 S15) S35)
(declare-fun f140 (S74 S72) S73)
(declare-fun f141 () S74)
(declare-fun f142 (S75 S13) S31)
(declare-fun f143 (S76 S15) S32)
(declare-fun f144 (S77 S75) S76)
(declare-fun f145 () S77)
(declare-fun f146 (S78 S2) S34)
(declare-fun f147 (S79 S3) S35)
(declare-fun f148 (S80 S78) S79)
(declare-fun f149 () S80)
(declare-fun f150 (S81 S2) S31)
(declare-fun f151 (S82 S3) S32)
(declare-fun f152 (S83 S81) S82)
(declare-fun f153 () S83)
(declare-fun f154 (S84 S14) S19)
(declare-fun f155 () S84)
(declare-fun f156 (S85 S34) S34)
(declare-fun f157 (S86 S31) S85)
(declare-fun f158 () S86)
(declare-fun f159 () S85)
(declare-fun f160 (S88 S87) S87)
(declare-fun f161 (S89 S34) S88)
(declare-fun f162 () S89)
(declare-fun f163 () S88)
(declare-fun f164 (S90 S7) S7)
(declare-fun f165 (S91 S2) S90)
(declare-fun f166 () S91)
(declare-fun f167 () S90)
(declare-fun f168 (S92 S14) S15)
(declare-fun f169 () S92)
(declare-fun f170 (S93 S34) S32)
(declare-fun f171 () S93)
(declare-fun f172 (S94 S87) S35)
(declare-fun f173 () S94)
(declare-fun f174 () S3)
(declare-fun f175 () S35)
(declare-fun f176 () S32)
(declare-fun f177 () S37)
(declare-fun f178 () S43)
(declare-fun f179 () S39)
(declare-fun f180 (S95 S15) S48)
(declare-fun f181 () S95)
(declare-fun f182 (S96 S32) S40)
(declare-fun f183 () S96)
(declare-fun f184 (S97 S35) S44)
(declare-fun f185 () S97)
(declare-fun f186 (S98 S3) S4)
(declare-fun f187 () S98)
(declare-fun f188 () S38)
(declare-fun f189 () S42)
(declare-fun f190 (S99 S15) S46)
(declare-fun f191 () S99)
(declare-fun f192 (S100 S32) S38)
(declare-fun f193 () S100)
(declare-fun f194 (S101 S35) S42)
(declare-fun f195 () S101)
(declare-fun f196 (S102 S3) S28)
(declare-fun f197 () S102)
(declare-fun f198 () S14)
(assert (not (= f1 f2)))
(assert (forall ((?v0 S2)) (= (= (f3 f4 ?v0) f1) (and (= (f5 (f6 f7 ?v0) (f8 f9 f10)) f1) (= (f3 (f11 (f12 (f13 f14 f15) f16) f16) ?v0) f1)))))
(assert (forall ((?v0 S2)) (= (= (f3 f17 ?v0) f1) (and (= (f5 (f6 f7 ?v0) (f8 f9 f10)) f1) (exists ((?v1 S13) (?v2 S13) (?v3 S14)) (and (= (f18 (f19 f20 ?v2) f21) f1) (= ?v0 (f22 (f23 f24 ?v1) (f25 (f26 f27 ?v2) ?v3)))))))))
(assert (forall ((?v0 S13)) (= (f28 f15 ?v0) (f29 (f30 f31 f2) f32))))
(assert (forall ((?v0 S13)) (= (= (f18 f33 ?v0) f1) (exists ((?v1 S14) (?v2 S13)) (and (= ?v0 (f34 (f35 f36 (f37 (f38 f39 (f25 f40 ?v1)) f41)) ?v2)) (= (f5 (f6 f7 (f22 (f23 f24 ?v2) ?v1)) (f42 f43 f4)) f1))))))
(assert (forall ((?v0 S13) (?v1 S14)) (= (f37 (f44 f45 ?v0) ?v1) (f34 (f35 f36 (f37 (f38 f39 (f25 f40 ?v1)) f41)) ?v0))))
(assert (forall ((?v0 S2) (?v1 S2)) (= (= (f3 (f46 f47 ?v0) ?v1) f1) (= ?v0 ?v1))))
(assert (forall ((?v0 S31) (?v1 S31)) (= (= (f48 (f49 f50 ?v0) ?v1) f1) (= ?v0 ?v1))))
(assert (forall ((?v0 S34) (?v1 S34)) (= (= (f51 (f52 f53 ?v0) ?v1) f1) (= ?v0 ?v1))))
(assert (forall ((?v0 S13) (?v1 S13)) (= (= (f18 (f19 f54 ?v0) ?v1) f1) (= ?v0 ?v1))))
(assert (forall ((?v0 S2) (?v1 S2)) (= (= (f3 (f46 f55 ?v0) ?v1) f1) (= ?v1 ?v0))))
(assert (forall ((?v0 S31) (?v1 S31)) (= (= (f48 (f49 f56 ?v0) ?v1) f1) (= ?v1 ?v0))))
(assert (forall ((?v0 S34) (?v1 S34)) (= (= (f51 (f52 f57 ?v0) ?v1) f1) (= ?v1 ?v0))))
(assert (forall ((?v0 S13) (?v1 S13)) (= (= (f18 (f19 f58 ?v0) ?v1) f1) (= ?v1 ?v0))))
(assert (forall ((?v0 S13) (?v1 S14)) (= (= (f59 (f28 f32 ?v0) ?v1) f1) (= (f18 (f19 f20 ?v0) f21) f1))))
(assert (forall ((?v0 S2) (?v1 S3) (?v2 S2)) (= (= (f3 (f42 (f60 f61 ?v0) ?v1) ?v2) f1) (or (= ?v2 ?v0) (= (f5 (f6 f7 ?v2) ?v1) f1)))))
(assert (forall ((?v0 S31) (?v1 S32) (?v2 S31)) (= (= (f48 (f62 (f63 f64 ?v0) ?v1) ?v2) f1) (or (= ?v2 ?v0) (= (f65 (f66 f67 ?v2) ?v1) f1)))))
(assert (forall ((?v0 S34) (?v1 S35) (?v2 S34)) (= (= (f51 (f68 (f69 f70 ?v0) ?v1) ?v2) f1) (or (= ?v2 ?v0) (= (f71 (f72 f73 ?v2) ?v1) f1)))))
(assert (forall ((?v0 S13) (?v1 S15) (?v2 S13)) (= (= (f18 (f74 (f75 f76 ?v0) ?v1) ?v2) f1) (or (= ?v2 ?v0) (= (f77 (f78 f79 ?v2) ?v1) f1)))))
(assert (forall ((?v0 S2) (?v1 S3) (?v2 S2)) (= (= (f3 (f42 (f60 f80 ?v0) ?v1) ?v2) f1) (and (= ?v0 ?v2) (= (f3 ?v1 ?v2) f1)))))
(assert (forall ((?v0 S31) (?v1 S32) (?v2 S31)) (= (= (f48 (f62 (f63 f81 ?v0) ?v1) ?v2) f1) (and (= ?v0 ?v2) (= (f48 ?v1 ?v2) f1)))))
(assert (forall ((?v0 S34) (?v1 S35) (?v2 S34)) (= (= (f51 (f68 (f69 f82 ?v0) ?v1) ?v2) f1) (and (= ?v0 ?v2) (= (f51 ?v1 ?v2) f1)))))
(assert (forall ((?v0 S13) (?v1 S15) (?v2 S13)) (= (= (f18 (f74 (f75 f83 ?v0) ?v1) ?v2) f1) (and (= ?v0 ?v2) (= (f18 ?v1 ?v2) f1)))))
(assert (forall ((?v0 S2) (?v1 S3) (?v2 S2)) (= (= (f3 (f42 (f60 f84 ?v0) ?v1) ?v2) f1) (and (= ?v2 ?v0) (= (f3 ?v1 ?v2) f1)))))
(assert (forall ((?v0 S31) (?v1 S32) (?v2 S31)) (= (= (f48 (f62 (f63 f85 ?v0) ?v1) ?v2) f1) (and (= ?v2 ?v0) (= (f48 ?v1 ?v2) f1)))))
(assert (forall ((?v0 S34) (?v1 S35) (?v2 S34)) (= (= (f51 (f68 (f69 f86 ?v0) ?v1) ?v2) f1) (and (= ?v2 ?v0) (= (f51 ?v1 ?v2) f1)))))
(assert (forall ((?v0 S13) (?v1 S15) (?v2 S13)) (= (= (f18 (f74 (f75 f87 ?v0) ?v1) ?v2) f1) (and (= ?v2 ?v0) (= (f18 ?v1 ?v2) f1)))))
(assert (forall ((?v0 S2) (?v1 S3) (?v2 S2)) (= (= (f3 (f42 (f60 f88 ?v0) ?v1) ?v2) f1) (=> (not (= ?v2 ?v0)) (= (f3 ?v1 ?v2) f1)))))
(assert (forall ((?v0 S31) (?v1 S32) (?v2 S31)) (= (= (f48 (f62 (f63 f89 ?v0) ?v1) ?v2) f1) (=> (not (= ?v2 ?v0)) (= (f48 ?v1 ?v2) f1)))))
(assert (forall ((?v0 S34) (?v1 S35) (?v2 S34)) (= (= (f51 (f68 (f69 f90 ?v0) ?v1) ?v2) f1) (=> (not (= ?v2 ?v0)) (= (f51 ?v1 ?v2) f1)))))
(assert (forall ((?v0 S13) (?v1 S15) (?v2 S13)) (= (= (f18 (f74 (f75 f91 ?v0) ?v1) ?v2) f1) (=> (not (= ?v2 ?v0)) (= (f18 ?v1 ?v2) f1)))))
(assert (forall ((?v0 S2) (?v1 S13) (?v2 S14)) (= (= (f59 (f28 (f92 f93 ?v0) ?v1) ?v2) f1) (= (f77 (f78 f79 (f94 f95 ?v0)) (f74 (f75 f96 f97) (f74 (f75 f96 (f34 f98 f99)) f100))) f1))))
(assert (forall ((?v0 S2) (?v1 S13) (?v2 S13) (?v3 S14)) (= (= (f59 (f28 (f101 (f102 f103 ?v0) ?v1) ?v2) ?v3) f1) (= (f94 f95 ?v0) f97))))
(assert (forall ((?v0 S13) (?v1 S13) (?v2 S14)) (= (f37 (f44 (f104 f105 ?v0) ?v1) ?v2) f106)))
(assert (forall ((?v0 S13) (?v1 S13) (?v2 S14)) (= (= (f59 (f28 (f101 f16 ?v0) ?v1) ?v2) f1) false)))
(assert (forall ((?v0 S2)) (= (= (f3 f107 ?v0) f1) false)))
(assert (forall ((?v0 S31)) (= (= (f48 f108 ?v0) f1) false)))
(assert (forall ((?v0 S34)) (= (= (f51 f109 ?v0) f1) false)))
(assert (forall ((?v0 S13)) (= (= (f18 f110 ?v0) f1) false)))
(assert (not (= (f111 (f112 f113 (f114 (f115 (f116 f117 f45) f105) f105)) (f42 f43 f17)) (f74 f118 f33))))
(assert (forall ((?v0 S2)) (let ((?v_0 (f102 f103 ?v0))) (=> (= (f5 (f6 f7 ?v0) (f8 f9 f10)) f1) (= (f3 (f11 (f12 (f13 f14 (f92 f93 ?v0)) ?v_0) ?v_0) ?v0) f1)))))
(assert (forall ((?v0 S2)) (=> (= (f5 (f6 f7 ?v0) (f8 f9 f10)) f1) (not (= (f94 f119 ?v0) f21)))))
(assert (forall ((?v0 S2)) (let ((?v_0 (f102 f103 ?v0))) (=> (= (f5 (f6 f7 ?v0) (f8 f9 f10)) f1) (= (f3 (f11 (f12 (f13 f14 (f92 f93 ?v0)) ?v_0) ?v_0) ?v0) f1)))))
(assert (= (f120 f10) f121))
(assert (forall ((?v0 S13) (?v1 S13)) (= (= (f18 (f19 f20 ?v0) ?v1) f1) (= (f18 (f19 f20 (f34 (f35 f36 ?v0) ?v1)) f21) f1))))
(assert (forall ((?v0 S13) (?v1 S13)) (= (= (f18 (f19 f20 ?v0) ?v1) f1) (= (f18 (f19 f20 (f34 (f35 f36 ?v0) ?v1)) f21) f1))))
(assert (forall ((?v0 S12) (?v1 S9) (?v2 S9) (?v3 S13) (?v4 S14)) (= (= (f3 (f11 (f12 (f13 f14 ?v0) ?v1) ?v2) (f22 (f23 f24 ?v3) ?v4)) f1) (= (f59 (f28 ?v0 ?v3) ?v4) f1))))
(assert (forall ((?v0 S29) (?v1 S53) (?v2 S53) (?v3 S13) (?v4 S14)) (= (f94 (f114 (f115 (f116 f117 ?v0) ?v1) ?v2) (f22 (f23 f24 ?v3) ?v4)) (f37 (f44 ?v0 ?v3) ?v4))))
(assert (forall ((?v0 S13) (?v1 S51) (?v2 S2) (?v3 S3)) (=> (= ?v0 (f94 ?v1 ?v2)) (=> (= (f5 (f6 f7 ?v2) ?v3) f1) (= (f77 (f78 f79 ?v0) (f111 (f112 f113 ?v1) ?v3)) f1)))))
(assert (forall ((?v0 S13) (?v1 S60) (?v2 S34) (?v3 S35)) (=> (= ?v0 (f122 ?v1 ?v2)) (=> (= (f71 (f72 f73 ?v2) ?v3) f1) (= (f77 (f78 f79 ?v0) (f123 (f124 f125 ?v1) ?v3)) f1)))))
(assert (forall ((?v0 S13) (?v1 S63) (?v2 S31) (?v3 S32)) (=> (= ?v0 (f126 ?v1 ?v2)) (=> (= (f65 (f66 f67 ?v2) ?v3) f1) (= (f77 (f78 f79 ?v0) (f127 (f128 f129 ?v1) ?v3)) f1)))))
(assert (forall ((?v0 S2) (?v1 S66) (?v2 S34) (?v3 S35)) (=> (= ?v0 (f130 ?v1 ?v2)) (=> (= (f71 (f72 f73 ?v2) ?v3) f1) (= (f5 (f6 f7 ?v0) (f131 (f132 f133 ?v1) ?v3)) f1)))))
(assert (forall ((?v0 S2) (?v1 S69) (?v2 S31) (?v3 S32)) (=> (= ?v0 (f134 ?v1 ?v2)) (=> (= (f65 (f66 f67 ?v2) ?v3) f1) (= (f5 (f6 f7 ?v0) (f135 (f136 f137 ?v1) ?v3)) f1)))))
(assert (forall ((?v0 S34) (?v1 S72) (?v2 S13) (?v3 S15)) (=> (= ?v0 (f138 ?v1 ?v2)) (=> (= (f77 (f78 f79 ?v2) ?v3) f1) (= (f71 (f72 f73 ?v0) (f139 (f140 f141 ?v1) ?v3)) f1)))))
(assert (forall ((?v0 S31) (?v1 S75) (?v2 S13) (?v3 S15)) (=> (= ?v0 (f142 ?v1 ?v2)) (=> (= (f77 (f78 f79 ?v2) ?v3) f1) (= (f65 (f66 f67 ?v0) (f143 (f144 f145 ?v1) ?v3)) f1)))))
(assert (forall ((?v0 S34) (?v1 S78) (?v2 S2) (?v3 S3)) (=> (= ?v0 (f146 ?v1 ?v2)) (=> (= (f5 (f6 f7 ?v2) ?v3) f1) (= (f71 (f72 f73 ?v0) (f147 (f148 f149 ?v1) ?v3)) f1)))))
(assert (forall ((?v0 S31) (?v1 S81) (?v2 S2) (?v3 S3)) (=> (= ?v0 (f150 ?v1 ?v2)) (=> (= (f5 (f6 f7 ?v2) ?v3) f1) (= (f65 (f66 f67 ?v0) (f151 (f152 f153 ?v1) ?v3)) f1)))))
(assert (forall ((?v0 S1) (?v1 S12) (?v2 S13) (?v3 S14)) (= (= (f59 (f29 (f30 f31 ?v0) ?v1) (f25 (f26 f27 ?v2) ?v3)) f1) (= (f59 (f28 ?v1 ?v2) ?v3) f1))))
(assert (forall ((?v0 S14) (?v1 S14) (?v2 S14)) (= (f37 (f38 f39 (f25 (f154 f155 ?v0) ?v1)) ?v2) (f34 (f35 f36 (f37 (f38 f39 ?v0) ?v2)) (f37 (f38 f39 ?v1) ?v2)))))
(assert (forall ((?v0 S13) (?v1 S14)) (= (f25 f40 (f25 (f26 f27 ?v0) ?v1)) ?v1)))
(assert (forall ((?v0 S31) (?v1 S34)) (= (f156 f159 (f156 (f157 f158 ?v0) ?v1)) ?v1)))
(assert (forall ((?v0 S34) (?v1 S87)) (= (f160 f163 (f160 (f161 f162 ?v0) ?v1)) ?v1)))
(assert (forall ((?v0 S2) (?v1 S7)) (= (f164 f167 (f164 (f165 f166 ?v0) ?v1)) ?v1)))
(assert (forall ((?v0 S2) (?v1 S2) (?v2 S7)) (let ((?v_0 (f6 f7 ?v0))) (=> (= (f5 ?v_0 (f8 f9 (f164 (f165 f166 ?v1) ?v2))) f1) (or (= ?v0 ?v1) (= (f5 ?v_0 (f8 f9 ?v2)) f1))))))
(assert (forall ((?v0 S13) (?v1 S13) (?v2 S14)) (let ((?v_0 (f78 f79 ?v0))) (=> (= (f77 ?v_0 (f168 f169 (f25 (f26 f27 ?v1) ?v2))) f1) (or (= ?v0 ?v1) (= (f77 ?v_0 (f168 f169 ?v2)) f1))))))
(assert (forall ((?v0 S31) (?v1 S31) (?v2 S34)) (let ((?v_0 (f66 f67 ?v0))) (=> (= (f65 ?v_0 (f170 f171 (f156 (f157 f158 ?v1) ?v2))) f1) (or (= ?v0 ?v1) (= (f65 ?v_0 (f170 f171 ?v2)) f1))))))
(assert (forall ((?v0 S34) (?v1 S34) (?v2 S87)) (let ((?v_0 (f72 f73 ?v0))) (=> (= (f71 ?v_0 (f172 f173 (f160 (f161 f162 ?v1) ?v2))) f1) (or (= ?v0 ?v1) (= (f71 ?v_0 (f172 f173 ?v2)) f1))))))
(assert (forall ((?v0 S13) (?v1 S14) (?v2 S13) (?v3 S14)) (= (f25 (f154 f155 (f25 (f26 f27 ?v0) ?v1)) (f25 (f26 f27 ?v2) ?v3)) (f25 (f26 f27 (f34 (f35 f36 ?v0) ?v2)) (f25 (f154 f155 ?v1) ?v3)))))
(assert (forall ((?v0 S13) (?v1 S13) (?v2 S13) (?v3 S13)) (=> (= (f34 (f35 f36 ?v0) ?v1) (f34 (f35 f36 ?v2) ?v3)) (= (= (f18 (f19 f20 ?v0) ?v1) f1) (= (f18 (f19 f20 ?v2) ?v3) f1)))))
(assert (forall ((?v0 S13)) (= (f34 (f35 f36 ?v0) f21) ?v0)))
(assert (forall ((?v0 S13)) (=> (= (f77 (f78 f79 ?v0) f100) f1) false)))
(assert (forall ((?v0 S2)) (=> (= (f5 (f6 f7 ?v0) f174) f1) false)))
(assert (forall ((?v0 S34)) (=> (= (f71 (f72 f73 ?v0) f175) f1) false)))
(assert (forall ((?v0 S31)) (=> (= (f65 (f66 f67 ?v0) f176) f1) false)))
(assert (forall ((?v0 S13) (?v1 S13) (?v2 S15)) (let ((?v_0 (f78 f79 ?v0))) (=> (= (f77 ?v_0 (f74 (f75 f96 ?v1) ?v2)) f1) (=> (=> (= ?v0 ?v1) false) (=> (=> (= (f77 ?v_0 ?v2) f1) false) false))))))
(assert (forall ((?v0 S2) (?v1 S2) (?v2 S3)) (let ((?v_0 (f6 f7 ?v0))) (=> (= (f5 ?v_0 (f42 (f60 f177 ?v1) ?v2)) f1) (=> (=> (= ?v0 ?v1) false) (=> (=> (= (f5 ?v_0 ?v2) f1) false) false))))))
(assert (forall ((?v0 S34) (?v1 S34) (?v2 S35)) (let ((?v_0 (f72 f73 ?v0))) (=> (= (f71 ?v_0 (f68 (f69 f178 ?v1) ?v2)) f1) (=> (=> (= ?v0 ?v1) false) (=> (=> (= (f71 ?v_0 ?v2) f1) false) false))))))
(assert (forall ((?v0 S31) (?v1 S31) (?v2 S32)) (let ((?v_0 (f66 f67 ?v0))) (=> (= (f65 ?v_0 (f62 (f63 f179 ?v1) ?v2)) f1) (=> (=> (= ?v0 ?v1) false) (=> (=> (= (f65 ?v_0 ?v2) f1) false) false))))))
(assert (forall ((?v0 S13) (?v1 S15) (?v2 S13)) (let ((?v_0 (f78 f79 ?v0))) (=> (=> (not (= (f77 ?v_0 ?v1) f1)) (= ?v0 ?v2)) (= (f77 ?v_0 (f74 (f75 f96 ?v2) ?v1)) f1)))))
(assert (forall ((?v0 S2) (?v1 S3) (?v2 S2)) (let ((?v_0 (f6 f7 ?v0))) (=> (=> (not (= (f5 ?v_0 ?v1) f1)) (= ?v0 ?v2)) (= (f5 ?v_0 (f42 (f60 f177 ?v2) ?v1)) f1)))))
(assert (forall ((?v0 S34) (?v1 S35) (?v2 S34)) (let ((?v_0 (f72 f73 ?v0))) (=> (=> (not (= (f71 ?v_0 ?v1) f1)) (= ?v0 ?v2)) (= (f71 ?v_0 (f68 (f69 f178 ?v2) ?v1)) f1)))))
(assert (forall ((?v0 S31) (?v1 S32) (?v2 S31)) (let ((?v_0 (f66 f67 ?v0))) (=> (=> (not (= (f65 ?v_0 ?v1) f1)) (= ?v0 ?v2)) (= (f65 ?v_0 (f62 (f63 f179 ?v2) ?v1)) f1)))))
(assert (forall ((?v0 S13) (?v1 S15)) (not (= f100 (f74 (f75 f96 ?v0) ?v1)))))
(assert (forall ((?v0 S31) (?v1 S32)) (not (= f176 (f62 (f63 f179 ?v0) ?v1)))))
(assert (forall ((?v0 S34) (?v1 S35)) (not (= f175 (f68 (f69 f178 ?v0) ?v1)))))
(assert (forall ((?v0 S2) (?v1 S3)) (not (= f174 (f42 (f60 f177 ?v0) ?v1)))))
(assert (forall ((?v0 S15)) (not (= (f77 (f180 f181 ?v0) f100) f1))))
(assert (forall ((?v0 S32)) (not (= (f65 (f182 f183 ?v0) f176) f1))))
(assert (forall ((?v0 S35)) (not (= (f71 (f184 f185 ?v0) f175) f1))))
(assert (forall ((?v0 S3)) (not (= (f5 (f186 f187 ?v0) f174) f1))))
(assert (forall ((?v0 S13) (?v1 S15)) (not (= (f74 (f75 f96 ?v0) ?v1) f100))))
(assert (forall ((?v0 S31) (?v1 S32)) (not (= (f62 (f63 f179 ?v0) ?v1) f176))))
(assert (forall ((?v0 S34) (?v1 S35)) (not (= (f68 (f69 f178 ?v0) ?v1) f175))))
(assert (forall ((?v0 S2) (?v1 S3)) (not (= (f42 (f60 f177 ?v0) ?v1) f174))))
(assert (= f100 (f74 f118 f110)))
(assert (= f174 (f42 f43 f107)))
(assert (= f176 (f62 f188 f108)))
(assert (= f175 (f68 f189 f109)))
(assert (forall ((?v0 S13) (?v1 S15)) (= (f77 (f78 f79 ?v0) (f74 (f75 f96 ?v0) ?v1)) f1)))
(assert (forall ((?v0 S2) (?v1 S3)) (= (f5 (f6 f7 ?v0) (f42 (f60 f177 ?v0) ?v1)) f1)))
(assert (forall ((?v0 S34) (?v1 S35)) (= (f71 (f72 f73 ?v0) (f68 (f69 f178 ?v0) ?v1)) f1)))
(assert (forall ((?v0 S31) (?v1 S32)) (= (f65 (f66 f67 ?v0) (f62 (f63 f179 ?v0) ?v1)) f1)))
(assert (forall ((?v0 S13)) (= (f34 f98 ?v0) ?v0)))
(assert (forall ((?v0 S15)) (= (forall ((?v1 S13)) (not (= (f77 (f78 f79 ?v1) ?v0) f1))) (= ?v0 f100))))
(assert (forall ((?v0 S3)) (= (forall ((?v1 S2)) (not (= (f5 (f6 f7 ?v1) ?v0) f1))) (= ?v0 f174))))
(assert (forall ((?v0 S35)) (= (forall ((?v1 S34)) (not (= (f71 (f72 f73 ?v1) ?v0) f1))) (= ?v0 f175))))
(assert (forall ((?v0 S32)) (= (forall ((?v1 S31)) (not (= (f65 (f66 f67 ?v1) ?v0) f1))) (= ?v0 f176))))
(assert (forall ((?v0 S13)) (= (f74 f118 (f19 f54 ?v0)) (f74 (f75 f96 ?v0) f100))))
(assert (forall ((?v0 S2)) (= (f42 f43 (f46 f47 ?v0)) (f42 (f60 f177 ?v0) f174))))
(assert (forall ((?v0 S31)) (= (f62 f188 (f49 f50 ?v0)) (f62 (f63 f179 ?v0) f176))))
(assert (forall ((?v0 S34)) (= (f68 f189 (f52 f53 ?v0)) (f68 (f69 f178 ?v0) f175))))
(assert (forall ((?v0 S15)) (= (exists ((?v1 S13)) (= (f77 (f78 f79 ?v1) ?v0) f1)) (not (= ?v0 f100)))))
(assert (forall ((?v0 S3)) (= (exists ((?v1 S2)) (= (f5 (f6 f7 ?v1) ?v0) f1)) (not (= ?v0 f174)))))
(assert (forall ((?v0 S35)) (= (exists ((?v1 S34)) (= (f71 (f72 f73 ?v1) ?v0) f1)) (not (= ?v0 f175)))))
(assert (forall ((?v0 S32)) (= (exists ((?v1 S31)) (= (f65 (f66 f67 ?v1) ?v0) f1)) (not (= ?v0 f176)))))
(assert (forall ((?v0 S13)) (= (f74 f118 (f19 f58 ?v0)) (f74 (f75 f96 ?v0) f100))))
(assert (forall ((?v0 S2)) (= (f42 f43 (f46 f55 ?v0)) (f42 (f60 f177 ?v0) f174))))
(assert (forall ((?v0 S31)) (= (f62 f188 (f49 f56 ?v0)) (f62 (f63 f179 ?v0) f176))))
(assert (forall ((?v0 S34)) (= (f68 f189 (f52 f57 ?v0)) (f68 (f69 f178 ?v0) f175))))
(assert (forall ((?v0 S13) (?v1 S15)) (= (f74 f118 (f74 (f75 f83 ?v0) ?v1)) (ite (= (f18 ?v1 ?v0) f1) (f74 (f75 f96 ?v0) f100) f100))))
(assert (forall ((?v0 S2) (?v1 S3)) (= (f42 f43 (f42 (f60 f80 ?v0) ?v1)) (ite (= (f3 ?v1 ?v0) f1) (f42 (f60 f177 ?v0) f174) f174))))
(assert (forall ((?v0 S31) (?v1 S32)) (= (f62 f188 (f62 (f63 f81 ?v0) ?v1)) (ite (= (f48 ?v1 ?v0) f1) (f62 (f63 f179 ?v0) f176) f176))))
(assert (forall ((?v0 S34) (?v1 S35)) (= (f68 f189 (f68 (f69 f82 ?v0) ?v1)) (ite (= (f51 ?v1 ?v0) f1) (f68 (f69 f178 ?v0) f175) f175))))
(assert (forall ((?v0 S13) (?v1 S15)) (= (f74 f118 (f74 (f75 f87 ?v0) ?v1)) (ite (= (f18 ?v1 ?v0) f1) (f74 (f75 f96 ?v0) f100) f100))))
(assert (forall ((?v0 S2) (?v1 S3)) (= (f42 f43 (f42 (f60 f84 ?v0) ?v1)) (ite (= (f3 ?v1 ?v0) f1) (f42 (f60 f177 ?v0) f174) f174))))
(assert (forall ((?v0 S31) (?v1 S32)) (= (f62 f188 (f62 (f63 f85 ?v0) ?v1)) (ite (= (f48 ?v1 ?v0) f1) (f62 (f63 f179 ?v0) f176) f176))))
(assert (forall ((?v0 S34) (?v1 S35)) (= (f68 f189 (f68 (f69 f86 ?v0) ?v1)) (ite (= (f51 ?v1 ?v0) f1) (f68 (f69 f178 ?v0) f175) f175))))
(assert (= (= f99 f99) true))
(assert (forall ((?v0 S15)) (= (exists ((?v1 S13)) (and (= (f77 (f78 f79 ?v1) f100) f1) (= (f18 ?v0 ?v1) f1))) false)))
(assert (forall ((?v0 S3)) (= (exists ((?v1 S2)) (and (= (f5 (f6 f7 ?v1) f174) f1) (= (f3 ?v0 ?v1) f1))) false)))
(assert (forall ((?v0 S35)) (= (exists ((?v1 S34)) (and (= (f71 (f72 f73 ?v1) f175) f1) (= (f51 ?v0 ?v1) f1))) false)))
(assert (forall ((?v0 S32)) (= (exists ((?v1 S31)) (and (= (f65 (f66 f67 ?v1) f176) f1) (= (f48 ?v0 ?v1) f1))) false)))
(assert (forall ((?v0 S15)) (= (forall ((?v1 S13)) (=> (= (f77 (f78 f79 ?v1) f100) f1) (= (f18 ?v0 ?v1) f1))) true)))
(assert (forall ((?v0 S3)) (= (forall ((?v1 S2)) (=> (= (f5 (f6 f7 ?v1) f174) f1) (= (f3 ?v0 ?v1) f1))) true)))
(assert (forall ((?v0 S35)) (= (forall ((?v1 S34)) (=> (= (f71 (f72 f73 ?v1) f175) f1) (= (f51 ?v0 ?v1) f1))) true)))
(assert (forall ((?v0 S32)) (= (forall ((?v1 S31)) (=> (= (f65 (f66 f67 ?v1) f176) f1) (= (f48 ?v0 ?v1) f1))) true)))
(assert (forall ((?v0 S15)) (= (f74 (f190 f191 f100) ?v0) f100)))
(assert (forall ((?v0 S32)) (= (f62 (f192 f193 f176) ?v0) f176)))
(assert (forall ((?v0 S35)) (= (f68 (f194 f195 f175) ?v0) f175)))
(assert (forall ((?v0 S3)) (= (f42 (f196 f197 f174) ?v0) f174)))
(assert (forall ((?v0 S13)) (= (= f97 ?v0) (= ?v0 f97))))
(assert (forall ((?v0 S15)) (= (= f100 (f74 f118 ?v0)) (forall ((?v1 S13)) (not (= (f18 ?v0 ?v1) f1))))))
(assert (forall ((?v0 S3)) (= (= f174 (f42 f43 ?v0)) (forall ((?v1 S2)) (not (= (f3 ?v0 ?v1) f1))))))
(assert (forall ((?v0 S32)) (= (= f176 (f62 f188 ?v0)) (forall ((?v1 S31)) (not (= (f48 ?v0 ?v1) f1))))))
(assert (forall ((?v0 S35)) (= (= f175 (f68 f189 ?v0)) (forall ((?v1 S34)) (not (= (f51 ?v0 ?v1) f1))))))
(assert (forall ((?v0 S13)) (= (= (f77 (f78 f79 ?v0) f100) f1) false)))
(assert (forall ((?v0 S2)) (= (= (f5 (f6 f7 ?v0) f174) f1) false)))
(assert (forall ((?v0 S34)) (= (= (f71 (f72 f73 ?v0) f175) f1) false)))
(assert (forall ((?v0 S31)) (= (= (f65 (f66 f67 ?v0) f176) f1) false)))
(assert (forall ((?v0 S15)) (= (f74 (f190 f191 ?v0) f100) ?v0)))
(assert (forall ((?v0 S32)) (= (f62 (f192 f193 ?v0) f176) ?v0)))
(assert (forall ((?v0 S35)) (= (f68 (f194 f195 ?v0) f175) ?v0)))
(assert (forall ((?v0 S3)) (= (f42 (f196 f197 ?v0) f174) ?v0)))
(assert (forall ((?v0 S14)) (= (f25 (f154 f155 ?v0) f198) ?v0)))
(assert (forall ((?v0 S15)) (= (f74 (f190 f191 ?v0) ?v0) f100)))
(assert (forall ((?v0 S32)) (= (f62 (f192 f193 ?v0) ?v0) f176)))
(assert (forall ((?v0 S35)) (= (f68 (f194 f195 ?v0) ?v0) f175)))
(assert (forall ((?v0 S3)) (= (f42 (f196 f197 ?v0) ?v0) f174)))
(assert (forall ((?v0 S13) (?v1 S15)) (= (f74 (f75 f96 ?v0) ?v1) (f74 f118 (f74 (f75 f76 ?v0) ?v1)))))
(assert (forall ((?v0 S2) (?v1 S3)) (= (f42 (f60 f177 ?v0) ?v1) (f42 f43 (f42 (f60 f61 ?v0) ?v1)))))
(assert (forall ((?v0 S34) (?v1 S35)) (= (f68 (f69 f178 ?v0) ?v1) (f68 f189 (f68 (f69 f70 ?v0) ?v1)))))
(assert (forall ((?v0 S31) (?v1 S32)) (= (f62 (f63 f179 ?v0) ?v1) (f62 f188 (f62 (f63 f64 ?v0) ?v1)))))
(assert (forall ((?v0 S13) (?v1 S15)) (= (f74 (f75 f96 ?v0) (f74 f118 ?v1)) (f74 f118 (f74 (f75 f91 ?v0) ?v1)))))
(assert (forall ((?v0 S2) (?v1 S3)) (= (f42 (f60 f177 ?v0) (f42 f43 ?v1)) (f42 f43 (f42 (f60 f88 ?v0) ?v1)))))
(assert (forall ((?v0 S31) (?v1 S32)) (= (f62 (f63 f179 ?v0) (f62 f188 ?v1)) (f62 f188 (f62 (f63 f89 ?v0) ?v1)))))
(assert (forall ((?v0 S34) (?v1 S35)) (= (f68 (f69 f178 ?v0) (f68 f189 ?v1)) (f68 f189 (f68 (f69 f90 ?v0) ?v1)))))
(assert (forall ((?v0 S13) (?v1 S13)) (= (= (f77 (f78 f79 ?v0) (f74 (f75 f96 ?v1) f100)) f1) (= ?v0 ?v1))))
(assert (forall ((?v0 S2) (?v1 S2)) (= (= (f5 (f6 f7 ?v0) (f42 (f60 f177 ?v1) f174)) f1) (= ?v0 ?v1))))
(assert (forall ((?v0 S34) (?v1 S34)) (= (= (f71 (f72 f73 ?v0) (f68 (f69 f178 ?v1) f175)) f1) (= ?v0 ?v1))))
(assert (forall ((?v0 S31) (?v1 S31)) (= (= (f65 (f66 f67 ?v0) (f62 (f63 f179 ?v1) f176)) f1) (= ?v0 ?v1))))
(assert (forall ((?v0 S13) (?v1 S15)) (let ((?v_0 (f75 f96 ?v0))) (let ((?v_1 (f74 ?v_0 ?v1))) (= (f74 ?v_0 ?v_1) ?v_1)))))
(assert (forall ((?v0 S31) (?v1 S32)) (let ((?v_0 (f63 f179 ?v0))) (let ((?v_1 (f62 ?v_0 ?v1))) (= (f62 ?v_0 ?v_1) ?v_1)))))
(assert (forall ((?v0 S34) (?v1 S35)) (let ((?v_0 (f69 f178 ?v0))) (let ((?v_1 (f68 ?v_0 ?v1))) (= (f68 ?v_0 ?v_1) ?v_1)))))
(assert (forall ((?v0 S2) (?v1 S3)) (let ((?v_0 (f60 f177 ?v0))) (let ((?v_1 (f42 ?v_0 ?v1))) (= (f42 ?v_0 ?v_1) ?v_1)))))
(assert (forall ((?v0 S13) (?v1 S13) (?v2 S15)) (let ((?v_1 (f75 f96 ?v0)) (?v_0 (f75 f96 ?v1))) (= (f74 ?v_1 (f74 ?v_0 ?v2)) (f74 ?v_0 (f74 ?v_1 ?v2))))))
(assert (forall ((?v0 S31) (?v1 S31) (?v2 S32)) (let ((?v_1 (f63 f179 ?v0)) (?v_0 (f63 f179 ?v1))) (= (f62 ?v_1 (f62 ?v_0 ?v2)) (f62 ?v_0 (f62 ?v_1 ?v2))))))
(assert (forall ((?v0 S34) (?v1 S34) (?v2 S35)) (let ((?v_1 (f69 f178 ?v0)) (?v_0 (f69 f178 ?v1))) (= (f68 ?v_1 (f68 ?v_0 ?v2)) (f68 ?v_0 (f68 ?v_1 ?v2))))))
(assert (forall ((?v0 S2) (?v1 S2) (?v2 S3)) (let ((?v_1 (f60 f177 ?v0)) (?v_0 (f60 f177 ?v1))) (= (f42 ?v_1 (f42 ?v_0 ?v2)) (f42 ?v_0 (f42 ?v_1 ?v2))))))
(assert (forall ((?v0 S15) (?v1 S13) (?v2 S15)) (let ((?v_0 (f190 f191 ?v0)) (?v_1 (f75 f96 ?v1))) (= (f74 ?v_0 (f74 ?v_1 ?v2)) (f74 (f190 f191 (f74 ?v_0 ?v2)) (f74 ?v_1 f100))))))
(assert (forall ((?v0 S32) (?v1 S31) (?v2 S32)) (let ((?v_0 (f192 f193 ?v0)) (?v_1 (f63 f179 ?v1))) (= (f62 ?v_0 (f62 ?v_1 ?v2)) (f62 (f192 f193 (f62 ?v_0 ?v2)) (f62 ?v_1 f176))))))
(assert (forall ((?v0 S35) (?v1 S34) (?v2 S35)) (let ((?v_0 (f194 f195 ?v0)) (?v_1 (f69 f178 ?v1))) (= (f68 ?v_0 (f68 ?v_1 ?v2)) (f68 (f194 f195 (f68 ?v_0 ?v2)) (f68 ?v_1 f175))))))
(assert (forall ((?v0 S3) (?v1 S2) (?v2 S3)) (let ((?v_0 (f196 f197 ?v0)) (?v_1 (f60 f177 ?v1))) (= (f42 ?v_0 (f42 ?v_1 ?v2)) (f42 (f196 f197 (f42 ?v_0 ?v2)) (f42 ?v_1 f174))))))
(assert (forall ((?v0 S13) (?v1 S13) (?v2 S15)) (let ((?v_0 (f78 f79 ?v0))) (= (= (f77 ?v_0 (f74 (f75 f96 ?v1) ?v2)) f1) (or (= ?v0 ?v1) (= (f77 ?v_0 ?v2) f1))))))
(assert (forall ((?v0 S2) (?v1 S2) (?v2 S3)) (let ((?v_0 (f6 f7 ?v0))) (= (= (f5 ?v_0 (f42 (f60 f177 ?v1) ?v2)) f1) (or (= ?v0 ?v1) (= (f5 ?v_0 ?v2) f1))))))
(assert (forall ((?v0 S34) (?v1 S34) (?v2 S35)) (let ((?v_0 (f72 f73 ?v0))) (= (= (f71 ?v_0 (f68 (f69 f178 ?v1) ?v2)) f1) (or (= ?v0 ?v1) (= (f71 ?v_0 ?v2) f1))))))
(assert (forall ((?v0 S31) (?v1 S31) (?v2 S32)) (let ((?v_0 (f66 f67 ?v0))) (= (= (f65 ?v_0 (f62 (f63 f179 ?v1) ?v2)) f1) (or (= ?v0 ?v1) (= (f65 ?v_0 ?v2) f1))))))
(assert (forall ((?v0 S15) (?v1 S13) (?v2 S15)) (let ((?v_0 (f190 f191 ?v0)) (?v_1 (f75 f96 ?v1))) (= (f74 ?v_0 (f74 ?v_1 ?v2)) (f74 (f190 f191 (f74 ?v_0 (f74 ?v_1 f100))) ?v2)))))
(assert (forall ((?v0 S32) (?v1 S31) (?v2 S32)) (let ((?v_0 (f192 f193 ?v0)) (?v_1 (f63 f179 ?v1))) (= (f62 ?v_0 (f62 ?v_1 ?v2)) (f62 (f192 f193 (f62 ?v_0 (f62 ?v_1 f176))) ?v2)))))
(assert (forall ((?v0 S35) (?v1 S34) (?v2 S35)) (let ((?v_0 (f194 f195 ?v0)) (?v_1 (f69 f178 ?v1))) (= (f68 ?v_0 (f68 ?v_1 ?v2)) (f68 (f194 f195 (f68 ?v_0 (f68 ?v_1 f175))) ?v2)))))
(assert (forall ((?v0 S3) (?v1 S2) (?v2 S3)) (let ((?v_0 (f196 f197 ?v0)) (?v_1 (f60 f177 ?v1))) (= (f42 ?v_0 (f42 ?v_1 ?v2)) (f42 (f196 f197 (f42 ?v_0 (f42 ?v_1 f174))) ?v2)))))
(assert (forall ((?v0 S13) (?v1 S15)) (let ((?v_0 (f75 f96 ?v0))) (= (f74 ?v_0 (f74 (f190 f191 ?v1) (f74 ?v_0 f100))) (f74 ?v_0 ?v1)))))
(assert (forall ((?v0 S31) (?v1 S32)) (let ((?v_0 (f63 f179 ?v0))) (= (f62 ?v_0 (f62 (f192 f193 ?v1) (f62 ?v_0 f176))) (f62 ?v_0 ?v1)))))
(assert (forall ((?v0 S34) (?v1 S35)) (let ((?v_0 (f69 f178 ?v0))) (= (f68 ?v_0 (f68 (f194 f195 ?v1) (f68 ?v_0 f175))) (f68 ?v_0 ?v1)))))
(assert (forall ((?v0 S2) (?v1 S3)) (let ((?v_0 (f60 f177 ?v0))) (= (f42 ?v_0 (f42 (f196 f197 ?v1) (f42 ?v_0 f174))) (f42 ?v_0 ?v1)))))
(assert (forall ((?v0 S15)) (= (= (f74 f118 ?v0) f100) (forall ((?v1 S13)) (not (= (f18 ?v0 ?v1) f1))))))
(assert (forall ((?v0 S3)) (= (= (f42 f43 ?v0) f174) (forall ((?v1 S2)) (not (= (f3 ?v0 ?v1) f1))))))
(assert (forall ((?v0 S32)) (= (= (f62 f188 ?v0) f176) (forall ((?v1 S31)) (not (= (f48 ?v0 ?v1) f1))))))
(assert (forall ((?v0 S35)) (= (= (f68 f189 ?v0) f175) (forall ((?v1 S34)) (not (= (f51 ?v0 ?v1) f1))))))
(assert (forall ((?v0 S13) (?v1 S13)) (let ((?v_0 (f34 f98 ?v0))) (= (= ?v_0 ?v1) (= ?v1 ?v_0)))))
(assert (forall ((?v0 S13) (?v1 S13)) (= (= (f34 f98 ?v0) (f34 f98 ?v1)) (= ?v0 ?v1))))
(assert (forall ((?v0 S13) (?v1 S15) (?v2 S15)) (let ((?v_0 (f75 f96 ?v0)) (?v_1 (f74 (f190 f191 ?v1) ?v2))) (= (f74 (f190 f191 (f74 ?v_0 ?v1)) ?v2) (ite (= (f77 (f78 f79 ?v0) ?v2) f1) ?v_1 (f74 ?v_0 ?v_1))))))
(assert (forall ((?v0 S2) (?v1 S3) (?v2 S3)) (let ((?v_0 (f60 f177 ?v0)) (?v_1 (f42 (f196 f197 ?v1) ?v2))) (= (f42 (f196 f197 (f42 ?v_0 ?v1)) ?v2) (ite (= (f5 (f6 f7 ?v0) ?v2) f1) ?v_1 (f42 ?v_0 ?v_1))))))
(assert (forall ((?v0 S34) (?v1 S35) (?v2 S35)) (let ((?v_0 (f69 f178 ?v0)) (?v_1 (f68 (f194 f195 ?v1) ?v2))) (= (f68 (f194 f195 (f68 ?v_0 ?v1)) ?v2) (ite (= (f71 (f72 f73 ?v0) ?v2) f1) ?v_1 (f68 ?v_0 ?v_1))))))
(assert (forall ((?v0 S31) (?v1 S32) (?v2 S32)) (let ((?v_0 (f63 f179 ?v0)) (?v_1 (f62 (f192 f193 ?v1) ?v2))) (= (f62 (f192 f193 (f62 ?v_0 ?v1)) ?v2) (ite (= (f65 (f66 f67 ?v0) ?v2) f1) ?v_1 (f62 ?v_0 ?v_1))))))
(assert (forall ((?v0 S13) (?v1 S13) (?v2 S13) (?v3 S13)) (= (= (f74 (f75 f96 ?v0) (f74 (f75 f96 ?v1) f100)) (f74 (f75 f96 ?v2) (f74 (f75 f96 ?v3) f100))) (or (and (= ?v0 ?v2) (= ?v1 ?v3)) (and (= ?v0 ?v3) (= ?v1 ?v2))))))
(assert (forall ((?v0 S31) (?v1 S31) (?v2 S31) (?v3 S31)) (= (= (f62 (f63 f179 ?v0) (f62 (f63 f179 ?v1) f176)) (f62 (f63 f179 ?v2) (f62 (f63 f179 ?v3) f176))) (or (and (= ?v0 ?v2) (= ?v1 ?v3)) (and (= ?v0 ?v3) (= ?v1 ?v2))))))
(assert (forall ((?v0 S34) (?v1 S34) (?v2 S34) (?v3 S34)) (= (= (f68 (f69 f178 ?v0) (f68 (f69 f178 ?v1) f175)) (f68 (f69 f178 ?v2) (f68 (f69 f178 ?v3) f175))) (or (and (= ?v0 ?v2) (= ?v1 ?v3)) (and (= ?v0 ?v3) (= ?v1 ?v2))))))
(assert (forall ((?v0 S2) (?v1 S2) (?v2 S2) (?v3 S2)) (= (= (f42 (f60 f177 ?v0) (f42 (f60 f177 ?v1) f174)) (f42 (f60 f177 ?v2) (f42 (f60 f177 ?v3) f174))) (or (and (= ?v0 ?v2) (= ?v1 ?v3)) (and (= ?v0 ?v3) (= ?v1 ?v2))))))
(assert (forall ((?v0 S13) (?v1 S15) (?v2 S13)) (= (= (f18 (f74 (f75 f96 ?v0) ?v1) ?v2) f1) (or (= ?v0 ?v2) (= (f18 ?v1 ?v2) f1)))))
(assert (forall ((?v0 S31) (?v1 S32) (?v2 S31)) (= (= (f48 (f62 (f63 f179 ?v0) ?v1) ?v2) f1) (or (= ?v0 ?v2) (= (f48 ?v1 ?v2) f1)))))
(assert (forall ((?v0 S34) (?v1 S35) (?v2 S34)) (= (= (f51 (f68 (f69 f178 ?v0) ?v1) ?v2) f1) (or (= ?v0 ?v2) (= (f51 ?v1 ?v2) f1)))))
(assert (forall ((?v0 S2) (?v1 S3) (?v2 S2)) (= (= (f3 (f42 (f60 f177 ?v0) ?v1) ?v2) f1) (or (= ?v0 ?v2) (= (f3 ?v1 ?v2) f1)))))
(assert (forall ((?v0 S13) (?v1 S15)) (let ((?v_0 (f75 f96 ?v0))) (=> (not (= (f77 (f78 f79 ?v0) ?v1) f1)) (= (f74 (f190 f191 (f74 ?v_0 ?v1)) (f74 ?v_0 f100)) ?v1)))))
(assert (forall ((?v0 S2) (?v1 S3)) (let ((?v_0 (f60 f177 ?v0))) (=> (not (= (f5 (f6 f7 ?v0) ?v1) f1)) (= (f42 (f196 f197 (f42 ?v_0 ?v1)) (f42 ?v_0 f174)) ?v1)))))
(assert (forall ((?v0 S34) (?v1 S35)) (let ((?v_0 (f69 f178 ?v0))) (=> (not (= (f71 (f72 f73 ?v0) ?v1) f1)) (= (f68 (f194 f195 (f68 ?v_0 ?v1)) (f68 ?v_0 f175)) ?v1)))))
(assert (forall ((?v0 S31) (?v1 S32)) (let ((?v_0 (f63 f179 ?v0))) (=> (not (= (f65 (f66 f67 ?v0) ?v1) f1)) (= (f62 (f192 f193 (f62 ?v_0 ?v1)) (f62 ?v_0 f176)) ?v1)))))
(assert (forall ((?v0 S13) (?v1 S15) (?v2 S15)) (let ((?v_0 (f78 f79 ?v0)) (?v_1 (f75 f96 ?v0))) (=> (not (= (f77 ?v_0 ?v1) f1)) (=> (not (= (f77 ?v_0 ?v2) f1)) (= (= (f74 ?v_1 ?v1) (f74 ?v_1 ?v2)) (= ?v1 ?v2)))))))
(assert (forall ((?v0 S2) (?v1 S3) (?v2 S3)) (let ((?v_0 (f6 f7 ?v0)) (?v_1 (f60 f177 ?v0))) (=> (not (= (f5 ?v_0 ?v1) f1)) (=> (not (= (f5 ?v_0 ?v2) f1)) (= (= (f42 ?v_1 ?v1) (f42 ?v_1 ?v2)) (= ?v1 ?v2)))))))
(assert (forall ((?v0 S34) (?v1 S35) (?v2 S35)) (let ((?v_0 (f72 f73 ?v0)) (?v_1 (f69 f178 ?v0))) (=> (not (= (f71 ?v_0 ?v1) f1)) (=> (not (= (f71 ?v_0 ?v2) f1)) (= (= (f68 ?v_1 ?v1) (f68 ?v_1 ?v2)) (= ?v1 ?v2)))))))
(assert (forall ((?v0 S31) (?v1 S32) (?v2 S32)) (let ((?v_0 (f66 f67 ?v0)) (?v_1 (f63 f179 ?v0))) (=> (not (= (f65 ?v_0 ?v1) f1)) (=> (not (= (f65 ?v_0 ?v2) f1)) (= (= (f62 ?v_1 ?v1) (f62 ?v_1 ?v2)) (= ?v1 ?v2)))))))
(assert (forall ((?v0 S15) (?v1 S13)) (=> (= ?v0 f100) (not (= (f77 (f78 f79 ?v1) ?v0) f1)))))
(assert (forall ((?v0 S3) (?v1 S2)) (=> (= ?v0 f174) (not (= (f5 (f6 f7 ?v1) ?v0) f1)))))
(assert (forall ((?v0 S35) (?v1 S34)) (=> (= ?v0 f175) (not (= (f71 (f72 f73 ?v1) ?v0) f1)))))
(assert (forall ((?v0 S32) (?v1 S31)) (=> (= ?v0 f176) (not (= (f65 (f66 f67 ?v1) ?v0) f1)))))
(assert (forall ((?v0 S13) (?v1 S15) (?v2 S13)) (let ((?v_0 (f78 f79 ?v0))) (=> (= (f77 ?v_0 ?v1) f1) (= (f77 ?v_0 (f74 (f75 f96 ?v2) ?v1)) f1)))))
(assert (forall ((?v0 S2) (?v1 S3) (?v2 S2)) (let ((?v_0 (f6 f7 ?v0))) (=> (= (f5 ?v_0 ?v1) f1) (= (f5 ?v_0 (f42 (f60 f177 ?v2) ?v1)) f1)))))
(assert (forall ((?v0 S34) (?v1 S35) (?v2 S34)) (let ((?v_0 (f72 f73 ?v0))) (=> (= (f71 ?v_0 ?v1) f1) (= (f71 ?v_0 (f68 (f69 f178 ?v2) ?v1)) f1)))))
(assert (forall ((?v0 S31) (?v1 S32) (?v2 S31)) (let ((?v_0 (f66 f67 ?v0))) (=> (= (f65 ?v_0 ?v1) f1) (= (f65 ?v_0 (f62 (f63 f179 ?v2) ?v1)) f1)))))
(assert (forall ((?v0 S13) (?v1 S15)) (=> (= (f77 (f78 f79 ?v0) ?v1) f1) (= (f74 (f75 f96 ?v0) ?v1) ?v1))))
(assert (forall ((?v0 S2) (?v1 S3)) (=> (= (f5 (f6 f7 ?v0) ?v1) f1) (= (f42 (f60 f177 ?v0) ?v1) ?v1))))
(assert (forall ((?v0 S34) (?v1 S35)) (=> (= (f71 (f72 f73 ?v0) ?v1) f1) (= (f68 (f69 f178 ?v0) ?v1) ?v1))))
(assert (forall ((?v0 S31) (?v1 S32)) (=> (= (f65 (f66 f67 ?v0) ?v1) f1) (= (f62 (f63 f179 ?v0) ?v1) ?v1))))
(assert (forall ((?v0 S13) (?v1 S15)) (let ((?v_0 (f75 f96 ?v0))) (=> (= (f77 (f78 f79 ?v0) ?v1) f1) (= (f74 ?v_0 (f74 (f190 f191 ?v1) (f74 ?v_0 f100))) ?v1)))))
(assert (forall ((?v0 S2) (?v1 S3)) (let ((?v_0 (f60 f177 ?v0))) (=> (= (f5 (f6 f7 ?v0) ?v1) f1) (= (f42 ?v_0 (f42 (f196 f197 ?v1) (f42 ?v_0 f174))) ?v1)))))
(assert (forall ((?v0 S34) (?v1 S35)) (let ((?v_0 (f69 f178 ?v0))) (=> (= (f71 (f72 f73 ?v0) ?v1) f1) (= (f68 ?v_0 (f68 (f194 f195 ?v1) (f68 ?v_0 f175))) ?v1)))))
(assert (forall ((?v0 S31) (?v1 S32)) (let ((?v_0 (f63 f179 ?v0))) (=> (= (f65 (f66 f67 ?v0) ?v1) f1) (= (f62 ?v_0 (f62 (f192 f193 ?v1) (f62 ?v_0 f176))) ?v1)))))
(assert (forall ((?v0 S13) (?v1 S15) (?v2 S15)) (=> (= (f77 (f78 f79 ?v0) ?v1) f1) (= (f74 (f190 f191 (f74 (f75 f96 ?v0) ?v2)) ?v1) (f74 (f190 f191 ?v2) ?v1)))))
(assert (forall ((?v0 S2) (?v1 S3) (?v2 S3)) (=> (= (f5 (f6 f7 ?v0) ?v1) f1) (= (f42 (f196 f197 (f42 (f60 f177 ?v0) ?v2)) ?v1) (f42 (f196 f197 ?v2) ?v1)))))
(assert (forall ((?v0 S34) (?v1 S35) (?v2 S35)) (=> (= (f71 (f72 f73 ?v0) ?v1) f1) (= (f68 (f194 f195 (f68 (f69 f178 ?v0) ?v2)) ?v1) (f68 (f194 f195 ?v2) ?v1)))))
(assert (forall ((?v0 S31) (?v1 S32) (?v2 S32)) (=> (= (f65 (f66 f67 ?v0) ?v1) f1) (= (f62 (f192 f193 (f62 (f63 f179 ?v0) ?v2)) ?v1) (f62 (f192 f193 ?v2) ?v1)))))
(assert (forall ((?v0 S13) (?v1 S13)) (=> (= (f77 (f78 f79 ?v0) (f74 (f75 f96 ?v1) f100)) f1) (=> (=> (= ?v0 ?v1) false) false))))
(assert (forall ((?v0 S2) (?v1 S2)) (=> (= (f5 (f6 f7 ?v0) (f42 (f60 f177 ?v1) f174)) f1) (=> (=> (= ?v0 ?v1) false) false))))
(assert (forall ((?v0 S34) (?v1 S34)) (=> (= (f71 (f72 f73 ?v0) (f68 (f69 f178 ?v1) f175)) f1) (=> (=> (= ?v0 ?v1) false) false))))
(assert (forall ((?v0 S31) (?v1 S31)) (=> (= (f65 (f66 f67 ?v0) (f62 (f63 f179 ?v1) f176)) f1) (=> (=> (= ?v0 ?v1) false) false))))
(assert (forall ((?v0 S13) (?v1 S13)) (=> (= (f74 (f75 f96 ?v0) f100) (f74 (f75 f96 ?v1) f100)) (= ?v0 ?v1))))
(assert (forall ((?v0 S31) (?v1 S31)) (=> (= (f62 (f63 f179 ?v0) f176) (f62 (f63 f179 ?v1) f176)) (= ?v0 ?v1))))
(assert (forall ((?v0 S34) (?v1 S34)) (=> (= (f68 (f69 f178 ?v0) f175) (f68 (f69 f178 ?v1) f175)) (= ?v0 ?v1))))
(assert (forall ((?v0 S2) (?v1 S2)) (=> (= (f42 (f60 f177 ?v0) f174) (f42 (f60 f177 ?v1) f174)) (= ?v0 ?v1))))
(check-sat)
(exit)
